s td 14 56 70
b 1 1 2 4 5 6 7 8 9 11 12 13 14 16 17 18 19 20 21 22 23 26 27 28 29 30 31 32 33 34 35 36 38 39 40 41 42 43 44 45 46 48 49 50 51 55 56 57 58 60 62 63 64 66 67 69 70
b 2 1 4 5 6 7 8 9 11 12 13 14 16 17 18 19 20 21 22 23 26 27 28 29 30 31 32 33 34 35 36 38 39 40 42 43 44 45 46 48 49 50 51 53 55 56 57 58 60 62 63 64 65 66 67 69 70
b 3 1 4 5 6 7 8 9 11 12 13 14 16 17 18 19 20 21 22 23 26 27 28 29 30 31 33 34 35 36 38 39 40 42 43 44 45 46 47 48 49 50 51 53 55 56 57 58 60 62 63 64 65 66 67 69 70
b 4 1 4 5 6 7 8 9 11 12 13 14 17 18 19 20 21 22 23 26 27 28 29 30 31 33 34 35 36 38 39 40 42 44 45 46 47 48 49 50 51 53 54 55 56 57 58 60 62 63 64 65 66 67 69 70
b 5 1 4 5 6 7 8 9 12 13 14 17 18 19 20 21 22 23 26 27 28 29 30 31 33 34 36 38 39 40 42 44 45 46 47 48 49 50 51 52 53 54 55 56 57 58 60 62 63 64 65 66 67 69 70
b 6 1 3 4 5 6 7 9 13 17 18 19 20 21 22 23 26 27 28 30 31 33 34 36 39 40 42 44 45 47 48 49 50 51 52 53 54 55 56 57 58 60 62 63 64 65 66 69 70
b 7 1 3 5 6 9 13 15 17 19 21 22 23 26 27 28 30 34 36 39 40 44 45 47 49 51 52 53 54 55 57 60 62 65 66 69 70
b 8 1 4 5 6 7 8 9 11 12 13 16 17 18 19 20 21 22 23 27 28 30 31 33 34 36 38 39 43 44 45 46 47 48 49 50 51 53 55 56 58 59 60 62 63 64 65 66 67 69 70
b 9 4 5 7 8 11 12 13 16 17 18 19 20 21 23 24 27 28 31 33 36 39 43 44 45 46 47 48 49 51 53 55 56 58 59 60 62 63 64 65 66 67 69
b 10 4 5 7 8 16 18 19 20 24 27 28 33 36 39 44 45 51 53 59 63 65 66 67 68
b 11 1 2 4 5 6 7 8 9 10 13 14 16 17 18 19 20 21 22 23 26 27 28 29 30 31 32 34 35 38 39 40 41 42 43 44 45 46 48 49 50 51 55 56 57 58 60 62 63 64 66 67 70
b 12 1 2 4 5 6 7 8 9 10 14 16 17 18 19 20 21 26 27 30 31 32 34 38 39 40 41 42 43 44 45 46 48 49 50 51 55 56 58 60 61 63 64 66 67
b 13 1 5 6 8 10 16 17 18 20 25 26 27 30 32 34 38 40 41 42 48 49 51 55 56 58 61 63 64 66 67
b 14 1 2 5 8 9 11 12 14 19 21 22 27 28 29 30 33 34 35 36 37 38 40 41 43 44 45 48 55 56 58 62 63 67 69 70
1 2
1 11
1 14
2 3
3 4
3 8
4 5
5 6
6 7
8 9
9 10
11 12
12 13
